c This is UnifRandomKSATGenerator
c uniform random 3-SAT generated instance with: 
c clause length: 3 
c number variables: 10 
c number clauses: 43 
c clause to variable ratio: 4.27 
c random number generator name: SHA1PRNG 
c random number generator provider: SUN 
c random number generator seed: 3683977630754976789 
p cnf 10 43
1 3 4 0
-9 8 -5 0
9 1 3 0
8 4 5 0
8 -3 -4 0
9 -7 -8 0
2 6 -8 0
1 -2 -6 0
10 4 -7 0
-3 4 6 0
10 4 -5 0
2 -4 -5 0
-2 -6 7 0
-2 9 -6 0
3 4 7 0
9 1 4 0
8 4 6 0
-9 -3 2 0
10 -4 7 0
1 -3 5 0
-1 -2 3 0
8 -1 -6 0
-9 -7 6 0
10 4 7 0
8 -5 -6 0
2 10 3 0
-10 -7 -8 0
-10 4 7 0
-9 2 6 0
10 6 -7 0
9 -5 6 0
2 -4 -6 0
-1 8 6 0
10 -3 6 0
1 6 7 0
2 4 7 0
-2 10 -3 0
9 10 -6 0
-2 -3 -6 0
-1 -3 -6 0
1 5 -6 0
-9 2 -5 0
-10 3 -7 0
